c nIsolatedPIs 2
c maxPI 18
p cnf 304 859
c gate 19 4 12 0
4 -19 0
12 -19 0
-4 -12 19 0
c gate 20 6 10 0
6 -20 0
10 -20 0
-6 -10 20 0
c gate 21 5 11 0
5 -21 0
11 -21 0
-5 -11 21 0
c gate 22 20 21 0
20 -22 0
21 -22 0
-20 -21 22 0
c gate 23 -20 -21 0
-20 -23 0
-21 -23 0
20 21 23 0
c gate 24 -22 -23 0
-22 -24 0
-23 -24 0
22 23 24 0
c gate 25 19 24 0
19 -25 0
24 -25 0
-19 -24 25 0
c gate 26 -19 -24 0
-19 -26 0
-24 -26 0
19 24 26 0
c gate 27 -25 -26 0
-25 -27 0
-26 -27 0
25 26 27 0
c gate 28 5 10 0
5 -28 0
10 -28 0
-5 -10 28 0
c gate 29 4 11 0
4 -29 0
11 -29 0
-4 -11 29 0
c gate 30 -28 -29 0
-28 -30 0
-29 -30 0
28 29 30 0
c gate 31 3 12 0
3 -31 0
12 -31 0
-3 -12 31 0
c gate 32 28 29 0
28 -32 0
29 -32 0
-28 -29 32 0
c gate 33 -30 -32 0
-30 -33 0
-32 -33 0
30 32 33 0
c gate 34 -31 33 0
-31 -34 0
33 -34 0
31 -33 34 0
c gate 35 -30 -34 0
-30 -35 0
-34 -35 0
30 34 35 0
c gate 36 27 35 0
27 -36 0
35 -36 0
-27 -35 36 0
c gate 37 1 15 0
1 -37 0
15 -37 0
-1 -15 37 0
c gate 38 3 13 0
3 -38 0
13 -38 0
-3 -13 38 0
c gate 39 2 14 0
2 -39 0
14 -39 0
-2 -14 39 0
c gate 40 -38 -39 0
-38 -40 0
-39 -40 0
38 39 40 0
c gate 41 38 39 0
38 -41 0
39 -41 0
-38 -39 41 0
c gate 42 -40 -41 0
-40 -42 0
-41 -42 0
40 41 42 0
c gate 43 37 42 0
37 -43 0
42 -43 0
-37 -42 43 0
c gate 44 -37 -42 0
-37 -44 0
-42 -44 0
37 42 44 0
c gate 45 -43 -44 0
-43 -45 0
-44 -45 0
43 44 45 0
c gate 46 -27 -35 0
-27 -46 0
-35 -46 0
27 35 46 0
c gate 47 -36 -46 0
-36 -47 0
-46 -47 0
36 46 47 0
c gate 48 45 47 0
45 -48 0
47 -48 0
-45 -47 48 0
c gate 49 -36 -48 0
-36 -49 0
-48 -49 0
36 48 49 0
c gate 50 -22 -25 0
-22 -50 0
-25 -50 0
22 25 50 0
c gate 51 7 10 0
7 -51 0
10 -51 0
-7 -10 51 0
c gate 52 6 11 0
6 -52 0
11 -52 0
-6 -11 52 0
c gate 53 -51 -52 0
-51 -53 0
-52 -53 0
51 52 53 0
c gate 54 51 52 0
51 -54 0
52 -54 0
-51 -52 54 0
c gate 55 -53 -54 0
-53 -55 0
-54 -55 0
53 54 55 0
c gate 56 5 12 0
5 -56 0
12 -56 0
-5 -12 56 0
c gate 57 55 -56 0
55 -57 0
-56 -57 0
-55 56 57 0
c gate 58 -55 56 0
-55 -58 0
56 -58 0
55 -56 58 0
c gate 59 -57 -58 0
-57 -59 0
-58 -59 0
57 58 59 0
c gate 60 50 59 0
50 -60 0
59 -60 0
-50 -59 60 0
c gate 61 -50 -59 0
-50 -61 0
-59 -61 0
50 59 61 0
c gate 62 -60 -61 0
-60 -62 0
-61 -62 0
60 61 62 0
c gate 63 2 15 0
2 -63 0
15 -63 0
-2 -15 63 0
c gate 64 4 13 0
4 -64 0
13 -64 0
-4 -13 64 0
c gate 65 3 14 0
3 -65 0
14 -65 0
-3 -14 65 0
c gate 66 -64 -65 0
-64 -66 0
-65 -66 0
64 65 66 0
c gate 67 64 65 0
64 -67 0
65 -67 0
-64 -65 67 0
c gate 68 -66 -67 0
-66 -68 0
-67 -68 0
66 67 68 0
c gate 69 63 68 0
63 -69 0
68 -69 0
-63 -68 69 0
c gate 70 -63 -68 0
-63 -70 0
-68 -70 0
63 68 70 0
c gate 71 -69 -70 0
-69 -71 0
-70 -71 0
69 70 71 0
c gate 72 62 -71 0
62 -72 0
-71 -72 0
-62 71 72 0
c gate 73 -62 71 0
-62 -73 0
71 -73 0
62 -71 73 0
c gate 74 -72 -73 0
-72 -74 0
-73 -74 0
72 73 74 0
c gate 75 -49 -74 0
-49 -75 0
-74 -75 0
49 74 75 0
c gate 76 49 74 0
49 -76 0
74 -76 0
-49 -74 76 0
c gate 77 -75 -76 0
-75 -77 0
-76 -77 0
75 76 77 0
c gate 78 1 16 0
1 -78 0
16 -78 0
-1 -16 78 0
c gate 79 -41 -43 0
-41 -79 0
-43 -79 0
41 43 79 0
c gate 80 78 -79 0
78 -80 0
-79 -80 0
-78 79 80 0
c gate 81 -78 79 0
-78 -81 0
79 -81 0
78 -79 81 0
c gate 82 -80 -81 0
-80 -82 0
-81 -82 0
80 81 82 0
c gate 83 77 82 0
77 -83 0
82 -83 0
-77 -82 83 0
c gate 84 -75 -83 0
-75 -84 0
-83 -84 0
75 83 84 0
c gate 85 2 16 0
2 -85 0
16 -85 0
-2 -16 85 0
c gate 86 1 17 0
1 -86 0
17 -86 0
-1 -17 86 0
c gate 87 85 86 0
85 -87 0
86 -87 0
-85 -86 87 0
c gate 88 -85 -86 0
-85 -88 0
-86 -88 0
85 86 88 0
c gate 89 -87 -88 0
-87 -89 0
-88 -89 0
87 88 89 0
c gate 90 -67 -69 0
-67 -90 0
-69 -90 0
67 69 90 0
c gate 91 -89 90 0
-89 -91 0
90 -91 0
89 -90 91 0
c gate 92 89 -90 0
89 -92 0
-90 -92 0
-89 90 92 0
c gate 93 -91 -92 0
-91 -93 0
-92 -93 0
91 92 93 0
c gate 94 3 15 0
3 -94 0
15 -94 0
-3 -15 94 0
c gate 95 5 13 0
5 -95 0
13 -95 0
-5 -13 95 0
c gate 96 4 14 0
4 -96 0
14 -96 0
-4 -14 96 0
c gate 97 -95 -96 0
-95 -97 0
-96 -97 0
95 96 97 0
c gate 98 95 96 0
95 -98 0
96 -98 0
-95 -96 98 0
c gate 99 -97 -98 0
-97 -99 0
-98 -99 0
97 98 99 0
c gate 100 -94 -99 0
-94 -100 0
-99 -100 0
94 99 100 0
c gate 101 94 99 0
94 -101 0
99 -101 0
-94 -99 101 0
c gate 102 -100 -101 0
-100 -102 0
-101 -102 0
100 101 102 0
c gate 103 6 12 0
6 -103 0
12 -103 0
-6 -12 103 0
c gate 104 8 10 0
8 -104 0
10 -104 0
-8 -10 104 0
c gate 105 7 11 0
7 -105 0
11 -105 0
-7 -11 105 0
c gate 106 104 105 0
104 -106 0
105 -106 0
-104 -105 106 0
c gate 107 -104 -105 0
-104 -107 0
-105 -107 0
104 105 107 0
c gate 108 -106 -107 0
-106 -108 0
-107 -108 0
106 107 108 0
c gate 109 103 108 0
103 -109 0
108 -109 0
-103 -108 109 0
c gate 110 -103 -108 0
-103 -110 0
-108 -110 0
103 108 110 0
c gate 111 -109 -110 0
-109 -111 0
-110 -111 0
109 110 111 0
c gate 112 -53 -57 0
-53 -112 0
-57 -112 0
53 57 112 0
c gate 113 111 112 0
111 -113 0
112 -113 0
-111 -112 113 0
c gate 114 -111 -112 0
-111 -114 0
-112 -114 0
111 112 114 0
c gate 115 -113 -114 0
-113 -115 0
-114 -115 0
113 114 115 0
c gate 116 102 115 0
102 -116 0
115 -116 0
-102 -115 116 0
c gate 117 -102 -115 0
-102 -117 0
-115 -117 0
102 115 117 0
c gate 118 -116 -117 0
-116 -118 0
-117 -118 0
116 117 118 0
c gate 119 -60 -72 0
-60 -119 0
-72 -119 0
60 72 119 0
c gate 120 118 119 0
118 -120 0
119 -120 0
-118 -119 120 0
c gate 121 -118 -119 0
-118 -121 0
-119 -121 0
118 119 121 0
c gate 122 -120 -121 0
-120 -122 0
-121 -122 0
120 121 122 0
c gate 123 93 122 0
93 -123 0
122 -123 0
-93 -122 123 0
c gate 124 -93 -122 0
-93 -124 0
-122 -124 0
93 122 124 0
c gate 125 -123 -124 0
-123 -125 0
-124 -125 0
123 124 125 0
c gate 126 -84 125 0
-84 -126 0
125 -126 0
84 -125 126 0
c gate 127 -120 -123 0
-120 -127 0
-123 -127 0
120 123 127 0
c gate 128 1 18 0
1 -128 0
18 -128 0
-1 -18 128 0
c gate 129 3 16 0
3 -129 0
16 -129 0
-3 -16 129 0
c gate 130 2 17 0
2 -130 0
17 -130 0
-2 -17 130 0
c gate 131 129 130 0
129 -131 0
130 -131 0
-129 -130 131 0
c gate 132 -129 -130 0
-129 -132 0
-130 -132 0
129 130 132 0
c gate 133 -131 -132 0
-131 -133 0
-132 -133 0
131 132 133 0
c gate 134 128 133 0
128 -134 0
133 -134 0
-128 -133 134 0
c gate 135 -128 -133 0
-128 -135 0
-133 -135 0
128 133 135 0
c gate 136 -134 -135 0
-134 -136 0
-135 -136 0
134 135 136 0
c gate 137 -98 -101 0
-98 -137 0
-101 -137 0
98 101 137 0
c gate 138 136 -137 0
136 -138 0
-137 -138 0
-136 137 138 0
c gate 139 -136 137 0
-136 -139 0
137 -139 0
136 -137 139 0
c gate 140 -138 -139 0
-138 -140 0
-139 -140 0
138 139 140 0
c gate 141 -87 -140 0
-87 -141 0
-140 -141 0
87 140 141 0
c gate 142 87 140 0
87 -142 0
140 -142 0
-87 -140 142 0
c gate 143 -141 -142 0
-141 -143 0
-142 -143 0
141 142 143 0
c gate 144 -113 -116 0
-113 -144 0
-116 -144 0
113 116 144 0
c gate 145 4 15 0
4 -145 0
15 -145 0
-4 -15 145 0
c gate 146 6 13 0
6 -146 0
13 -146 0
-6 -13 146 0
c gate 147 5 14 0
5 -147 0
14 -147 0
-5 -14 147 0
c gate 148 -146 -147 0
-146 -148 0
-147 -148 0
146 147 148 0
c gate 149 146 147 0
146 -149 0
147 -149 0
-146 -147 149 0
c gate 150 -148 -149 0
-148 -150 0
-149 -150 0
148 149 150 0
c gate 151 145 150 0
145 -151 0
150 -151 0
-145 -150 151 0
c gate 152 -145 -150 0
-145 -152 0
-150 -152 0
145 150 152 0
c gate 153 -151 -152 0
-151 -153 0
-152 -153 0
151 152 153 0
c gate 154 -106 -109 0
-106 -154 0
-109 -154 0
106 109 154 0
c gate 155 7 12 0
7 -155 0
12 -155 0
-7 -12 155 0
c gate 156 9 10 0
9 -156 0
10 -156 0
-9 -10 156 0
c gate 157 8 11 0
8 -157 0
11 -157 0
-8 -11 157 0
c gate 158 156 157 0
156 -158 0
157 -158 0
-156 -157 158 0
c gate 159 -156 -157 0
-156 -159 0
-157 -159 0
156 157 159 0
c gate 160 -158 -159 0
-158 -160 0
-159 -160 0
158 159 160 0
c gate 161 155 160 0
155 -161 0
160 -161 0
-155 -160 161 0
c gate 162 -155 -160 0
-155 -162 0
-160 -162 0
155 160 162 0
c gate 163 -161 -162 0
-161 -163 0
-162 -163 0
161 162 163 0
c gate 164 -154 163 0
-154 -164 0
163 -164 0
154 -163 164 0
c gate 165 154 -163 0
154 -165 0
-163 -165 0
-154 163 165 0
c gate 166 -164 -165 0
-164 -166 0
-165 -166 0
164 165 166 0
c gate 167 153 166 0
153 -167 0
166 -167 0
-153 -166 167 0
c gate 168 -153 -166 0
-153 -168 0
-166 -168 0
153 166 168 0
c gate 169 -167 -168 0
-167 -169 0
-168 -169 0
167 168 169 0
c gate 170 -144 169 0
-144 -170 0
169 -170 0
144 -169 170 0
c gate 171 144 -169 0
144 -171 0
-169 -171 0
-144 169 171 0
c gate 172 -170 -171 0
-170 -172 0
-171 -172 0
170 171 172 0
c gate 173 143 172 0
143 -173 0
172 -173 0
-143 -172 173 0
c gate 174 -143 -172 0
-143 -174 0
-172 -174 0
143 172 174 0
c gate 175 -173 -174 0
-173 -175 0
-174 -175 0
173 174 175 0
c gate 176 -127 175 0
-127 -176 0
175 -176 0
127 -175 176 0
c gate 177 127 -175 0
127 -177 0
-175 -177 0
-127 175 177 0
c gate 178 -176 -177 0
-176 -178 0
-177 -178 0
176 177 178 0
c gate 179 92 178 0
92 -179 0
178 -179 0
-92 -178 179 0
c gate 180 -92 -178 0
-92 -180 0
-178 -180 0
92 178 180 0
c gate 181 -179 -180 0
-179 -181 0
-180 -181 0
179 180 181 0
c gate 182 -126 -181 0
-126 -182 0
-181 -182 0
126 181 182 0
c gate 183 126 181 0
126 -183 0
181 -183 0
-126 -181 183 0
c gate 184 -182 -183 0
-182 -184 0
-183 -184 0
182 183 184 0
c gate 185 4 10 0
4 -185 0
10 -185 0
-4 -10 185 0
c gate 186 3 11 0
3 -186 0
11 -186 0
-3 -11 186 0
c gate 187 185 186 0
185 -187 0
186 -187 0
-185 -186 187 0
c gate 188 -185 -186 0
-185 -188 0
-186 -188 0
185 186 188 0
c gate 189 -187 -188 0
-187 -189 0
-188 -189 0
187 188 189 0
c gate 190 2 12 0
2 -190 0
12 -190 0
-2 -12 190 0
c gate 191 189 190 0
189 -191 0
190 -191 0
-189 -190 191 0
c gate 192 -189 -190 0
-189 -192 0
-190 -192 0
189 190 192 0
c gate 193 -191 -192 0
-191 -193 0
-192 -193 0
191 192 193 0
c gate 194 3 10 0
3 -194 0
10 -194 0
-3 -10 194 0
c gate 195 2 11 0
2 -195 0
11 -195 0
-2 -11 195 0
c gate 196 1 12 0
1 -196 0
12 -196 0
-1 -12 196 0
c gate 197 195 196 0
195 -197 0
196 -197 0
-195 -196 197 0
c gate 198 -194 -197 0
-194 -198 0
-197 -198 0
194 197 198 0
c gate 199 -195 -196 0
-195 -199 0
-196 -199 0
195 196 199 0
c gate 200 -198 -199 0
-198 -200 0
-199 -200 0
198 199 200 0
c gate 201 193 200 0
193 -201 0
200 -201 0
-193 -200 201 0
c gate 202 1 13 0
1 -202 0
13 -202 0
-1 -13 202 0
c gate 203 -193 -200 0
-193 -203 0
-200 -203 0
193 200 203 0
c gate 204 -201 -203 0
-201 -204 0
-203 -204 0
201 203 204 0
c gate 205 202 204 0
202 -205 0
204 -205 0
-202 -204 205 0
c gate 206 -201 -205 0
-201 -206 0
-205 -206 0
201 205 206 0
c gate 207 -187 -191 0
-187 -207 0
-191 -207 0
187 191 207 0
c gate 208 31 -33 0
31 -208 0
-33 -208 0
-31 33 208 0
c gate 209 -34 -208 0
-34 -209 0
-208 -209 0
34 208 209 0
c gate 210 -207 -209 0
-207 -210 0
-209 -210 0
207 209 210 0
c gate 211 207 209 0
207 -211 0
209 -211 0
-207 -209 211 0
c gate 212 -210 -211 0
-210 -212 0
-211 -212 0
210 211 212 0
c gate 213 2 13 0
2 -213 0
13 -213 0
-2 -13 213 0
c gate 214 1 14 0
1 -214 0
14 -214 0
-1 -14 214 0
c gate 215 -213 -214 0
-213 -215 0
-214 -215 0
213 214 215 0
c gate 216 213 214 0
213 -216 0
214 -216 0
-213 -214 216 0
c gate 217 -215 -216 0
-215 -217 0
-216 -217 0
215 216 217 0
c gate 218 212 217 0
212 -218 0
217 -218 0
-212 -217 218 0
c gate 219 -212 -217 0
-212 -219 0
-217 -219 0
212 217 219 0
c gate 220 -218 -219 0
-218 -220 0
-219 -220 0
218 219 220 0
c gate 221 -206 220 0
-206 -221 0
220 -221 0
206 -220 221 0
c gate 222 -210 -218 0
-210 -222 0
-218 -222 0
210 218 222 0
c gate 223 -45 -47 0
-45 -223 0
-47 -223 0
45 47 223 0
c gate 224 -48 -223 0
-48 -224 0
-223 -224 0
48 223 224 0
c gate 225 222 -224 0
222 -225 0
-224 -225 0
-222 224 225 0
c gate 226 -222 224 0
-222 -226 0
224 -226 0
222 -224 226 0
c gate 227 216 -226 0
216 -227 0
-226 -227 0
-216 226 227 0
c gate 228 -225 227 0
-225 -228 0
227 -228 0
225 -227 228 0
c gate 229 212 -215 0
212 -229 0
-215 -229 0
-212 215 229 0
c gate 230 -210 -229 0
-210 -230 0
-229 -230 0
210 229 230 0
c gate 231 224 -230 0
224 -231 0
-230 -231 0
-224 230 231 0
c gate 232 -224 230 0
-224 -232 0
230 -232 0
224 -230 232 0
c gate 233 -231 -232 0
-231 -233 0
-232 -233 0
231 232 233 0
c gate 234 -216 -233 0
-216 -234 0
-233 -234 0
216 233 234 0
c gate 235 -228 -234 0
-228 -235 0
-234 -235 0
228 234 235 0
c gate 236 221 235 0
221 -236 0
235 -236 0
-221 -235 236 0
c gate 237 -226 -228 0
-226 -237 0
-228 -237 0
226 228 237 0
c gate 238 -77 -82 0
-77 -238 0
-82 -238 0
77 82 238 0
c gate 239 -83 -238 0
-83 -239 0
-238 -239 0
83 238 239 0
c gate 240 -237 239 0
-237 -240 0
239 -240 0
237 -239 240 0
c gate 241 237 -239 0
237 -241 0
-239 -241 0
-237 239 241 0
c gate 242 -240 -241 0
-240 -242 0
-241 -242 0
240 241 242 0
c gate 243 236 242 0
236 -243 0
242 -243 0
-236 -242 243 0
c gate 244 -236 -242 0
-236 -244 0
-242 -244 0
236 242 244 0
c gate 245 -243 -244 0
-243 -245 0
-244 -245 0
243 244 245 0
c gate 246 -3 -12 0
-3 -246 0
-12 -246 0
3 12 246 0
c gate 247 -31 -246 0
-31 -247 0
-246 -247 0
31 246 247 0
c gate 248 1 10 0
1 -248 0
10 -248 0
-1 -10 248 0
c gate 249 195 248 0
195 -249 0
248 -249 0
-195 -248 249 0
c gate 250 -247 249 0
-247 -250 0
249 -250 0
247 -249 250 0
c gate 251 -202 -204 0
-202 -251 0
-204 -251 0
202 204 251 0
c gate 252 -205 -251 0
-205 -252 0
-251 -252 0
205 251 252 0
c gate 253 250 252 0
250 -253 0
252 -253 0
-250 -252 253 0
c gate 254 206 -220 0
206 -254 0
-220 -254 0
-206 220 254 0
c gate 255 -221 -254 0
-221 -255 0
-254 -255 0
221 254 255 0
c gate 256 253 255 0
253 -256 0
255 -256 0
-253 -255 256 0
c gate 257 235 256 0
235 -257 0
256 -257 0
-235 -256 257 0
c gate 258 245 257 0
245 -258 0
257 -258 0
-245 -257 258 0
c gate 259 84 -125 0
84 -259 0
-125 -259 0
-84 125 259 0
c gate 260 -126 -259 0
-126 -260 0
-259 -260 0
126 259 260 0
c gate 261 80 260 0
80 -261 0
260 -261 0
-80 -260 261 0
c gate 262 -80 -260 0
-80 -262 0
-260 -262 0
80 260 262 0
c gate 263 -261 -262 0
-261 -263 0
-262 -263 0
261 262 263 0
c gate 264 -240 -243 0
-240 -264 0
-243 -264 0
240 243 264 0
c gate 265 263 264 0
263 -265 0
264 -265 0
-263 -264 265 0
c gate 266 -263 -264 0
-263 -266 0
-264 -266 0
263 264 266 0
c gate 267 -265 -266 0
-265 -267 0
-266 -267 0
265 266 267 0
c gate 268 258 -267 0
258 -268 0
-267 -268 0
-258 267 268 0
c gate 269 243 263 0
243 -269 0
263 -269 0
-243 -263 269 0
c gate 270 -268 -269 0
-268 -270 0
-269 -270 0
268 269 270 0
c gate 271 240 263 0
240 -271 0
263 -271 0
-240 -263 271 0
c gate 272 -126 -261 0
-126 -272 0
-261 -272 0
126 261 272 0
c gate 273 181 -272 0
181 -273 0
-272 -273 0
-181 272 273 0
c gate 274 182 -261 0
182 -274 0
-261 -274 0
-182 261 274 0
c gate 275 -273 -274 0
-273 -275 0
-274 -275 0
273 274 275 0
c gate 276 271 275 0
271 -276 0
275 -276 0
-271 -275 276 0
c gate 277 -271 -275 0
-271 -277 0
-275 -277 0
271 275 277 0
c gate 278 -276 -277 0
-276 -278 0
-277 -278 0
276 277 278 0
c gate 279 -270 278 0
-270 -279 0
278 -279 0
270 -278 279 0
c gate 280 270 -278 0
270 -280 0
-278 -280 0
-270 278 280 0
c gate 281 -279 -280 0
-279 -281 0
-280 -281 0
279 280 281 0
c gate 282 184 -281 0
184 -282 0
-281 -282 0
-184 281 282 0
c gate 283 -184 281 0
-184 -283 0
281 -283 0
184 -281 283 0
c gate 284 -282 -283 0
-282 -284 0
-283 -284 0
282 283 284 0
c gate 285 231 239 0
231 -285 0
239 -285 0
-231 -239 285 0
c gate 286 262 -285 0
262 -286 0
-285 -286 0
-262 285 286 0
c gate 287 -258 267 0
-258 -287 0
267 -287 0
258 -267 287 0
c gate 288 -268 -287 0
-268 -288 0
-287 -288 0
268 287 288 0
c gate 289 286 288 0
286 -289 0
288 -289 0
-286 -288 289 0
c gate 290 -212 215 0
-212 -290 0
215 -290 0
212 -215 290 0
c gate 291 -229 -290 0
-229 -291 0
-290 -291 0
229 290 291 0
c gate 292 -206 291 0
-206 -292 0
291 -292 0
206 -291 292 0
c gate 293 233 292 0
233 -293 0
292 -293 0
-233 -292 293 0
c gate 294 -231 -239 0
-231 -294 0
-239 -294 0
231 239 294 0
c gate 295 -285 -294 0
-285 -295 0
-294 -295 0
285 294 295 0
c gate 296 -293 -295 0
-293 -296 0
-295 -296 0
293 295 296 0
c gate 297 -245 -257 0
-245 -297 0
-257 -297 0
245 257 297 0
c gate 298 -258 -297 0
-258 -298 0
-297 -298 0
258 297 298 0
c gate 299 -296 -298 0
-296 -299 0
-298 -299 0
296 298 299 0
c gate 300 -286 -288 0
-286 -300 0
-288 -300 0
286 288 300 0
c gate 301 -289 -300 0
-289 -301 0
-300 -301 0
289 300 301 0
c gate 302 -299 301 0
-299 -302 0
301 -302 0
299 -301 302 0
c gate 303 -289 -302 0
-289 -303 0
-302 -303 0
289 302 303 0
c gate 304 -284 -303 0
-284 -304 0
-303 -304 0
284 303 304 0
c PO
304 0
